c turning on binary mode checking
c parsing input formula with 202048 variables and 780975 clauses
c finished parsing, read 16782300 bytes from proof file
c detected empty clause; start verification via backward checking
c 8863 of 780975 clauses in core                            
c 11406 of 455710 lemmas in core using 88727 resolution steps
c 0 RAT lemmas in core; 617 redundant literals in core lemmas
s VERIFIED
c verification time: 1.920 seconds
